3 48 1 10
6 7 6 11 11 12 18 11 11 2 2 18 19 1 3 6 9 17 14 20 13 17 7 14 12 19 12 10 2 20 18 7 8 4 9 14 10 3 17 15 8 16 19 11 11 8 15 8 
6.13 0.14 0.74 1.59 4.48 7.78 1.22 7.86 2.65 4.54 3.96 1.27 2.42 0.19 7.95 3.25 2.51 4.82 2.65 1.25 4.5 1.31 1.94 1.17 7.67 3.77 7.81 1.47 4.79 5.08 6.68 0.84 3.18 2.99 3.32 4.6 2.81 7.84 7.12 5.56 6.33 3.94 0.17 7.55 1.38 3.51 3.81 7.33 
4 4 4 4 4 4 4 4 4 4 4 4 4 4 4 4 4 4 4 4 4 4 4 4 4 4 4 4 4 4 4 4 4 4 4 4 4 4 4 4 4 4 4 4 4 4 4 4 
4.31 0.52 3.72 6.95 2.89 4.88 0.57 7.73 1.56 6.76 7.47 0.46 5.28 4.46 3.03 2.96 2.35 5.9 0.53 2.93 1.24 5.36 6.89 6.09 3.16 2.43 4.64 6.89 1.61 4.02 6.26 0.73 1.14 2.36 2.08 5.7 0.15 1.34 0.29 7.7 1.61 5.23 4.73 6.54 6.35 0.79 1.49 7.18 
1 1 1 1 1 1 1 1 1 1 1 1 1 1 1 1 1 1 1 1 1 1 1 1 1 1 1 1 1 1 1 1 1 1 1 1 1 1 1 1 1 1 1 1 1 1 1 1 
1 1 1 1 1 1 1 1 1 1 1 1 1 1 1 1 1 1 1 1 1 1 1 1 1 1 1 1 1 1 1 1 1 1 1 1 1 1 1 1 1 1 1 1 1 1 1 1 
1 1 1 1 1 1 1 1 1 1 1 1 1 1 1 1 1 1 1 1 1 1 1 1 1 1 1 1 1 1 1 1 1 1 1 1 1 1 1 1 1 1 1 1 1 1 1 1 
0.01 0.01 0.01 0.01 0.01 0.01 0.01 0.01 0.01 0.01 0.01 0.01 0.01 0.01 0.01 0.01 0.01 0.01 0.01 0.01 0.01 0.01 0.01 0.01 0.01 0.01 0.01 0.01 0.01 0.01 0.01 0.01 0.01 0.01 0.01 0.01 0.01 0.01 0.01 0.01 0.01 0.01 0.01 0.01 0.01 0.01 0.01 0.01 
0.02 0.02 0.02 0.02 0.02 0.02 0.02 0.02 0.02 0.02 0.02 0.02 0.02 0.02 0.02 0.02 0.02 0.02 0.02 0.02 0.02 0.02 0.02 0.02 0.02 0.02 0.02 0.02 0.02 0.02 0.02 0.02 0.02 0.02 0.02 0.02 0.02 0.02 0.02 0.02 0.02 0.02 0.02 0.02 0.02 0.02 0.02 0.02 
1 1 1 1 1 1 1 1 1 1 1 1 1 1 1 1 1 1 1 1 1 1 1 1 1 1 1 1 1 1 1 1 1 1 1 1 1 1 1 1 1 1 1 1 1 1 1 1 
